130 6931
1 41 39 117 112 62 105 128 16 45 76 129 124 26 97 70 63 68 110 98 25 48 7 88 86 69 64 61 109 11 5 28 115 83 3 114 108 8 18 46 80 20 118 35 54 17 31 34 104 127 107 43 19 27 100 116 95 79 24 15 29 89 94 32 113 84 36 119 77 103 81 12 87 65 56 101 111 123 82 57 9 52 75 74 99 73 91 6 102 55 122 10 14 67 13 96 23 47 40 21 121 78 66 85 90 125 59 30 126 33 22 37 93 44 42 51 60 120 53 58 49 72 92 38 106 4 2 50 130 71 
